(declare-const x0 Real)
(assert (<= 2.001000 x0))
(declare-const x1 Real)
(assert (<= 2.001000 x1))
(declare-const x2 Real)
(assert (<= 2.001000 x2))
(declare-const x3 Real)
(assert (<= 2.001000 x3))
(declare-const x4 Real)
(assert (<= 2.001000 x4))
(declare-const x5 Real)
(assert (<= 2.001000 x5))
(declare-const x6 Real)
(assert (<= 2.001000 x6))
(declare-const x7 Real)
(assert (<= 2.001000 x7))
(declare-const x8 Real)
(assert (<= 2.001000 x8))
(declare-const x9 Real)
(assert (<= 2.001000 x9))


(minimize
	(+ (^ (log (+ (- 2.0) x0)) 2.0) (^ (log (- 10.0 x0)) 2.0) (^ (log (+ (- 2.0) x1)) 2.0) (^ (log (- 10.0 x1)) 2.0) (^ (log (+ (- 2.0) x2)) 2.0) (^ (log (- 10.0 x2)) 2.0) (^ (log (+ (- 2.0) x3)) 2.0) (^ (log (- 10.0 x3)) 2.0) (^ (log (+ (- 2.0) x4)) 2.0) (^ (log (- 10.0 x4)) 2.0) (^ (log (+ (- 2.0) x5)) 2.0) (^ (log (- 10.0 x5)) 2.0) (^ (log (+ (- 2.0) x6)) 2.0) (^ (log (- 10.0 x6)) 2.0) (^ (log (+ (- 2.0) x7)) 2.0) (^ (log (- 10.0 x7)) 2.0) (^ (log (+ (- 2.0) x8)) 2.0) (^ (log (- 10.0 x8)) 2.0) (^ (log (+ (- 2.0) x9)) 2.0) (^ (log (- 10.0 x9)) 2.0) (- (^ (* (* (* (* (* (* (* (* (* x0 x1) x2) x3) x4) x5) x6) x7) x8) x9) 0.200000)))
)
(check-sat)
(get-objectives)
(exit)

